benchmarks_vrp/CMT4/min_c/CMT4_0.vrp
NAME: CMT4_0
TYPE: CVRP
COMMENT: 1028.42 - Cluster Nr.0
DIMENSION: 13
CAPACITY: 200
EDGE_WEIGHT_TYPE: EUC_2D
NODE_COORD_TYPE: TWOD_COORDS
NODE_COORD_SECTION: 
12 47 16
10 55 5
13 35 35
8 45 10
4 42 7
2 49 11
7 45 20
11 53 12
3 51 21
1 44 17
6 46 13
9 39 10
5 46 10
DEPOT_SECTION: 
13
-1
DEMAND_SECTION: 
12 25
5 23
4 5
6 8
3 5
11 6
2 18
7 11
10 29
8 18
9 10
1 9
13 0
EOF
