benchmarks_vrp/CMT4/min_c/CMT4_0.tour
NAME: CMT4_0 solution
TYPE: TOUR
TOUR_SECTION:
13 3 11 10 2 5 8 4 9 6 12 1 7 -1
-1
EOF